
===== New CPLEX run =====
Instance: /home/yorig/tuner/mpils-tests/instances/miplib/easy/mas74.mps
Config: /scratch/yorig/mpils-results-grid-ticks-10000-divide/easy/16proc/seed-4/5_mas74_seed-4_20260429_043455/expansion/config_param_CPXPARAM_MIP_Strategy_RINSHeur_40_iter_1.prm
========================

Selected objective sense:  MINIMIZE
Selected objective  name:  obj
Selected RHS        name:  rhs
Selected bound      name:  bnd
Version identifier: 22.1.2.0 | 2024-11-26 | 0edbb82fd
CPXPARAM_Threads                                 8
CPXPARAM_Parallel                                1
CPXPARAM_MIP_Cuts_Cliques                        1
CPXPARAM_MIP_Cuts_FlowCovers                     1
CPXPARAM_MIP_Cuts_Implied                        -1
CPXPARAM_MIP_Cuts_GUBCovers                      -1
CPXPARAM_MIP_Limits_GomoryCand                   10
CPXPARAM_MIP_Cuts_Gomory                         2
CPXPARAM_MIP_Cuts_PathCut                        2
CPXPARAM_MIP_Cuts_MIRCut                         -1
CPXPARAM_MIP_Cuts_Disjunctive                    2
CPXPARAM_Emphasis_MIP                            3
CPXPARAM_MIP_Strategy_RINSHeur                   40
CPXPARAM_DetTimeLimit                            10000
Found incumbent of value 157344.610330 after 0.00 sec. (0.02 ticks)
Tried aggregator 1 time.
MIP Presolve eliminated 0 rows and 3 columns.
Reduced MIP has 13 rows, 148 columns, and 1682 nonzeros.
Reduced MIP has 145 binaries, 2 generals, 0 SOSs, and 0 indicators.
Presolve time = 0.00 sec. (0.84 ticks)
Probing time = 0.00 sec. (0.09 ticks)
Tried aggregator 1 time.
Detecting symmetries...
Reduced MIP has 13 rows, 148 columns, and 1682 nonzeros.
Reduced MIP has 145 binaries, 2 generals, 0 SOSs, and 0 indicators.
Presolve time = 0.00 sec. (0.79 ticks)
Probing time = 0.00 sec. (0.09 ticks)
MIP emphasis: best bound.
MIP search method: dynamic search.
Parallel mode: deterministic, using up to 8 threads.
Root relaxation solution time = 0.01 sec. (0.72 ticks)

        Nodes                                         Cuts/
   Node  Left     Objective  IInf  Best Integer    Best Bound    ItCnt     Gap

*     0+    0                       157344.6103        0.0000           100.00%
*     0+    0                        51840.4943        0.0000           100.00%
      0     0    10482.7953    12    51840.4943    10482.7953       43   79.78%
*     0+    0                        19197.4680    10482.7953            45.39%
      0     0    10526.7004    13    19197.4680      Fract: 1       51   45.17%
*     0+    0                        14901.6028    10526.7004            29.36%
      0     0    10549.2365    14    14901.6028      Fract: 1       59   29.21%
*     0+    0                        14692.2744    10549.2365            28.20%
      0     0    10553.2582    15    14692.2744      Fract: 1       65   28.17%
      0     0    10557.5476    16    14692.2744      Fract: 1       71   28.14%
      0     0    10560.8992    16    14692.2744      Fract: 1       79   28.12%
Detecting symmetries...
      0     0    10564.8486    16    14692.2744   LiftProj: 1       87   28.09%
*     0+    0                        13886.0272    10564.8486            23.92%
      0     0    10567.6171    17    13886.0272   LiftProj: 1       92   23.90%
      0     0    10568.6950    18    13886.0272   LiftProj: 1       97   23.89%
      0     0    10569.2729    19    13886.0272   LiftProj: 1      100   23.89%
      0     0    10569.3085    20    13886.0272   LiftProj: 1      102   23.89%
*     0+    0                        12915.1000    10569.3085            18.16%
*     0+    0                        12715.8924    10587.6058            16.74%
      0     0  -1.00000e+75     0    12715.8924    10587.6058      102   16.74%
Detecting symmetries...
      0     2    10569.3085    20    12715.8924    10587.6058      102   16.74%
Elapsed time = 0.81 sec. (55.02 ticks, tree = 0.02 MB, solutions = 8)
*    40+    3                        12640.3713    10587.6058            16.24%
*   360+  130                        12310.6944    10637.9348            13.59%
*   360+  279                        12291.0216    10637.9348            13.45%
*   360+  104                        12014.8924    10637.9348            11.46%

Performing restart 1

Repeating presolve.
Tried aggregator 1 time.
MIP Presolve eliminated 0 rows and 45 columns.
Reduced MIP has 13 rows, 103 columns, and 1106 nonzeros.
Reduced MIP has 101 binaries, 1 generals, 0 SOSs, and 0 indicators.
Presolve time = 0.00 sec. (0.40 ticks)
Tried aggregator 1 time.
Reduced MIP has 13 rows, 103 columns, and 1106 nonzeros.
Reduced MIP has 101 binaries, 1 generals, 0 SOSs, and 0 indicators.
Presolve time = 0.00 sec. (0.50 ticks)
Represolve time = 0.00 sec. (2.39 ticks)
   2385     0    10571.2621    22    12014.8924   LiftProj: 1    14268   10.66%
   2406    20    10705.3793    12    12014.8924    10734.2125    14400   10.66%
   4407  1751    10880.4628    12    12014.8924    10816.7820    26574    9.97%
  12118  8274    11099.5630    11    12014.8924    10922.9892    71427    9.09%
  21508 17860        cutoff          12014.8924    11005.3641   137507    8.40%
* 29962+25036                        11985.1775    11040.0250             7.89%
  31108 26575    11265.3154    12    11985.1775    11044.7141   198214    7.85%
* 35644+30262                        11891.2631    11062.4078             6.97%
  38026 33495    11164.6943    12    11891.2631    11072.6930   248842    6.88%
  42988 37854    11317.9415    12    11891.2631    11072.6930   279706    6.88%
  47913 43053    11323.9064    12    11891.2631    11072.6930   316637    6.88%
  52857 47394    11212.6526    12    11891.2631    11072.6930   347426    6.88%

Performing restart 2

Repeating presolve.
Tried aggregator 1 time.
MIP Presolve eliminated 0 rows and 4 columns.
Reduced MIP has 13 rows, 99 columns, and 1054 nonzeros.
Reduced MIP has 97 binaries, 1 generals, 0 SOSs, and 0 indicators.
Presolve time = 0.00 sec. (0.35 ticks)
Tried aggregator 1 time.
Reduced MIP has 13 rows, 99 columns, and 1054 nonzeros.
Reduced MIP has 97 binaries, 1 generals, 0 SOSs, and 0 indicators.
Presolve time = 0.00 sec. (0.47 ticks)
Represolve time = 0.03 sec. (3.85 ticks)
  71617  2712    10909.6757    12    11891.2631    11166.2676   474926    6.10%
Elapsed time = 12.25 sec. (3155.33 ticks, tree = 0.64 MB, solutions = 15)
*101748+30439                        11857.3713    11166.2676             5.83%
 109897 36853    11191.9699    12    11857.3713    11166.2676   712309    5.83%
*130339+55960                        11801.1857    11183.0970             5.24%
 147722 70439    11281.9641    11    11801.1857    11214.7842   957360    4.97%
 187459 104290    11593.6867    10    11801.1857    11271.9711  1207509    4.48%
 226629 136847    11490.9100    12    11801.1857    11309.3993  1453030    4.17%
 265857 166668    11457.1451     9    11801.1857    11340.0440  1685698    3.91%
 305683 197480    11497.1015    12    11801.1857    11365.0733  1930299    3.70%
 346255 227017    11451.1629    12    11801.1857    11388.4146  2170444    3.50%

Clique cuts applied:  0
Cover cuts applied:  69
Flow cuts applied:  0
Flow path cuts applied:  0
Lift and project cuts applied:  9
Gomory fractional cuts applied:  3
Disjunctive cuts applied:  0
Cone linearizations applied:  0

Root node processing (before b&c):
  Real time             =    0.68 sec. (54.96 ticks)
Parallel b&c, 8 threads:
  Real time             =   33.91 sec. (9945.39 ticks)
  Sync time (average)   =   15.34 sec.
  Wait time (average)   =    0.17 sec.
                          ------------
Total (root+branch&cut) =   34.58 sec. (10000.35 ticks)
Gap: 3.45%
Upper bound: 11801.2
Lower bound: 11393.7
End of CPLEX run. Time: 34.6239 seconds
